
List of user-set options:

                                    Name   Value                used
                        file_print_level = 5                     yes
                   hessian_approximation = limited-memory        yes
                                  hsllib = /home/ggs24/packages/ThirdParty-HSL/.libs/libcoinhsl.so  yes
                           linear_solver = ma97                  yes
                                max_iter = 1000                  yes
                             output_file = IPOPT.out             yes
                             print_level = 0                     yes
                      print_user_options = yes                   yes
                                      sb = yes                   yes
                                     tol = 0.0001                yes
This is Ipopt version 3.14.7, running with linear solver ma97.

Number of nonzeros in equality constraint Jacobian...:      328
Number of nonzeros in inequality constraint Jacobian.:    10619
Number of nonzeros in Lagrangian Hessian.............:        0

Total number of variables............................:       41
                     variables with only lower bounds:        1
                variables with lower and upper bounds:       40
                     variables with only upper bounds:        0
Total number of equality constraints.................:        8
Total number of inequality constraints...............:      259
        inequality constraints with only lower bounds:        0
   inequality constraints with lower and upper bounds:      259
        inequality constraints with only upper bounds:        0

iter    objective    inf_pr   inf_du lg(mu)  ||d||  lg(rg) alpha_du alpha_pr  ls
   0  4.0309695e-01 3.04e-02 9.40e-01   0.0 0.00e+00    -  0.00e+00 0.00e+00   0
   1  4.0042872e-01 1.78e-15 2.44e+00  -1.0 3.76e-01    -  8.69e-01 9.90e-01f  1
   2  4.0074719e-01 4.44e-16 5.37e+00  -1.9 5.02e-02    -  9.71e-01 9.90e-01h  1
   3  3.9799810e-01 7.20e-12 3.68e-03  -2.3 2.25e-01    -  1.00e+00 1.00e+00H  1
   4  3.9406308e-01 4.45e-13 1.60e+03  -3.4 3.13e-01    -  9.51e-01 1.00e+00h  1
   5  3.8508645e-01 2.92e-01 9.00e+02  -3.4 1.56e+00    -  1.00e+00 5.35e-01h  1
   6  3.8492197e-01 8.05e-02 1.60e-03  -4.0 2.85e-01    -  1.00e+00 1.00e+00h  1
   7  3.8323237e-01 1.70e-01 9.35e+02  -4.5 5.70e-01    -  8.83e-01 1.00e+00h  1
   8  3.8060520e-01 5.07e-01 1.46e-03  -4.1 1.01e+00    -  1.00e+00 1.00e+00h  1
   9  3.8520992e-01 1.19e-02 1.60e+02  -4.2 1.14e+00    -  7.77e-01 1.00e+00H  1
iter    objective    inf_pr   inf_du lg(mu)  ||d||  lg(rg) alpha_du alpha_pr  ls
  10  3.8036831e-01 4.49e-01 6.44e+02  -4.3 8.95e-01    -  5.47e-01 1.00e+00h  1
  11  3.8233299e-01 3.67e-02 4.41e-04  -4.4 2.22e-01    -  1.00e+00 1.00e+00h  1
  12  3.8205458e-01 4.11e-02 1.25e+02  -5.1 2.16e-01    -  9.62e-01 1.00e+00h  1
  13  3.8135662e-01 1.70e-01 1.54e-03  -4.8 4.25e-01    -  1.00e+00 1.00e+00h  1
  14  3.8195240e-01 4.78e-02 3.78e+00  -4.9 3.34e-01    -  9.90e-01 1.00e+00h  1
  15  3.8183916e-01 3.44e-02 7.60e-02  -5.0 1.98e-01    -  1.00e+00 1.00e+00h  1
  16  3.8177469e-01 3.21e-02 1.94e-04  -5.7 1.87e-01    -  1.00e+00 1.00e+00h  1
  17  3.8083482e-01 2.24e-01 2.22e-01  -5.9 6.70e-01    -  9.98e-01 1.00e+00h  1
  18  3.8327123e-01 1.81e-10 1.28e-03  -4.7 5.76e-01    -  1.00e+00 1.00e+00H  1
  19  3.8179343e-01 7.00e-02 5.68e+01  -4.7 3.81e-01    -  8.42e-01 1.00e+00h  1
iter    objective    inf_pr   inf_du lg(mu)  ||d||  lg(rg) alpha_du alpha_pr  ls
  20  3.8161641e-01 4.94e-02 3.66e-04  -4.7 3.52e-01    -  1.00e+00 1.00e+00h  1
  21  3.8123606e-01 1.39e-01 1.86e+01  -5.2 5.41e-01    -  9.84e-01 1.00e+00h  1
  22  3.8166098e-01 2.09e-02 5.65e-04  -5.6 3.26e-01    -  1.00e+00 1.00e+00h  1
  23  3.8165591e-01 6.02e-03 3.10e-01  -6.2 9.09e-02    -  9.98e-01 1.00e+00h  1
  24  3.8163727e-01 3.76e-03 1.67e-04  -6.0 9.98e-02    -  1.00e+00 1.00e+00h  1
  25  3.8138929e-01 4.19e-02 2.80e-04  -6.5 3.80e-01    -  1.00e+00 1.00e+00h  1
  26  3.8097899e-01 3.06e-01 7.56e+02  -5.0 4.86e-01    -  2.60e-01 1.00e+00h  1
  27  3.7994055e-01 3.21e-01 1.95e+02  -5.6 9.62e-01    -  1.00e+00 7.55e-01h  1
  28  3.8051428e-01 2.10e-01 1.05e+02  -6.2 4.77e-01    -  4.53e-01 4.59e-01h  1
  29  3.8140154e-01 2.33e-02 1.30e+00  -5.8 1.85e-01    -  1.00e+00 9.88e-01h  1
iter    objective    inf_pr   inf_du lg(mu)  ||d||  lg(rg) alpha_du alpha_pr  ls
  30  3.8120481e-01 5.99e-02 4.39e+00  -5.5 4.52e-01    -  1.00e+00 9.65e-01h  1
  31  3.8133267e-01 4.29e-02 6.61e-04  -5.6 2.05e-01    -  1.00e+00 1.00e+00h  1
  32  3.8120957e-01 5.37e-02 1.87e-04  -5.4 3.75e-01    -  1.00e+00 1.00e+00h  1
  33  3.8134429e-01 2.97e-02 2.17e+00  -5.8 2.43e-01    -  9.91e-01 1.00e+00h  1
  34  3.8118914e-01 4.55e-02 2.19e-04  -6.1 3.25e-01    -  1.00e+00 1.00e+00h  1
  35  3.8190610e-01 9.26e-12 4.45e+01  -5.7 3.23e-01    -  5.62e-01 1.00e+00H  1
  36  3.8131095e-01 2.20e-02 6.19e-05  -5.9 2.47e-01    -  1.00e+00 1.00e+00h  1
  37  3.8134916e-01 1.20e-02 1.53e-04  -6.3 1.64e-01    -  1.00e+00 1.00e+00h  1
  38  3.8112092e-01 8.00e-02 8.22e-04  -5.7 2.60e-01    -  1.00e+00 1.00e+00h  1
  39  3.8135648e-01 1.09e-02 1.64e-01  -6.1 1.54e-01    -  9.99e-01 1.00e+00h  1
iter    objective    inf_pr   inf_du lg(mu)  ||d||  lg(rg) alpha_du alpha_pr  ls
  40  3.8138840e-01 2.24e-03 7.75e+00  -6.2 5.81e-02    -  5.48e-01 1.00e+00h  1
  41  3.8137881e-01 2.61e-03 5.84e-05  -6.4 7.24e-02    -  1.00e+00 1.00e+00h  1
  42  3.8120316e-01 4.24e-02 2.38e-02  -6.6 2.42e-01    -  9.97e-01 1.00e+00h  1
  43  3.8135816e-01 5.92e-03 7.73e-05  -6.3 9.75e-02    -  1.00e+00 1.00e+00h  1
  44  3.8138055e-01 9.54e-04 8.43e-05  -6.5 3.63e-02    -  1.00e+00 1.00e+00h  1
  45  3.8136669e-01 2.61e-03 6.26e-05  -7.1 7.28e-02    -  1.00e+00 1.00e+00h  1
  46  3.8141818e-01 4.71e-02 1.28e-03  -5.8 4.14e-01    -  1.00e+00 1.00e+00h  1
  47  3.8119126e-01 3.79e-02 8.50e+00  -5.9 2.54e-01    -  6.64e-01 1.00e+00h  1
  48  3.8136948e-01 4.39e-03 2.09e-04  -5.9 9.06e-02    -  1.00e+00 1.00e+00h  1
  49  3.8139057e-01 8.76e-04 1.21e-04  -5.9 5.58e-02    -  1.00e+00 1.00e+00h  1
iter    objective    inf_pr   inf_du lg(mu)  ||d||  lg(rg) alpha_du alpha_pr  ls
  50  3.8138733e-01 6.91e-04 4.03e-05  -5.9 3.23e-02    -  1.00e+00 1.00e+00h  1
  51  3.8121204e-01 2.93e-02 3.06e-01  -6.4 2.14e-01    -  9.97e-01 1.00e+00h  1
  52  3.8085958e-01 2.94e-01 1.11e+02  -5.4 3.14e+00    -  6.89e-01 9.68e-01h  1
  53  3.7742078e-01 7.76e-01 2.24e+01  -5.6 2.19e+00    -  4.75e-01 1.00e+00h  1
  54  3.7663587e-01 9.40e-01 2.71e+01  -5.3 2.48e+00    -  3.16e-01 2.71e-01h  1
  55  3.7855189e-01 5.57e-01 3.70e+01  -7.5 5.05e-01    -  3.70e-01 4.29e-01h  1
  56  3.8081840e-01 1.38e-01 1.72e+02  -5.2 7.17e-01    -  6.31e-01 1.00e+00h  1
  57  3.8015111e-01 3.86e-01 7.82e+01  -4.9 9.08e-01    -  8.90e-01 1.00e+00h  1
  58  3.8040018e-01 2.39e-01 1.12e+02  -5.0 5.62e-01    -  5.13e-01 1.00e+00h  1
  59  3.8132363e-01 1.10e-01 1.09e-03  -4.7 4.22e-01    -  1.00e+00 1.00e+00h  1
iter    objective    inf_pr   inf_du lg(mu)  ||d||  lg(rg) alpha_du alpha_pr  ls
  60  3.8149551e-01 2.56e-02 3.00e-04  -4.8 2.13e-01    -  1.00e+00 1.00e+00h  1
  61  3.8156336e-01 1.11e-02 2.98e-04  -4.8 1.50e-01    -  1.00e+00 1.00e+00h  1
  62  3.8164171e-01 3.33e-16 7.83e-05  -4.8 9.42e-02    -  1.00e+00 1.00e+00h  1

Number of Iterations....: 62

                                   (scaled)                 (unscaled)
Objective...............:   3.8164171256168472e-01    3.8164171256168472e-01
Dual infeasibility......:   7.8326798558543302e-05    7.8326798558543302e-05
Constraint violation....:   3.3306690738754696e-16    3.3306690738754696e-16
Variable bound violation:   0.0000000000000000e+00    0.0000000000000000e+00
Complementarity.........:   1.4804849584181241e-05    1.4804849584181241e-05
Overall NLP error.......:   7.8326798558543302e-05    7.8326798558543302e-05


Number of objective function evaluations             = 68
Number of objective gradient evaluations             = 63
Number of equality constraint evaluations            = 68
Number of inequality constraint evaluations          = 68
Number of equality constraint Jacobian evaluations   = 63
Number of inequality constraint Jacobian evaluations = 63
Number of Lagrangian Hessian evaluations             = 0
Total seconds in IPOPT                               = 1.093

EXIT: Optimal Solution Found.
